language Essence 1.3

letting bot_end be [2712, 1080, 2684, 519, 910, 1573, 464, 535, 3079, 886, 1853, 50, 737, 2387, 1965, 2627; int(1..16)]
letting bot_start be
        [1360, 3061, 499, 1188, 2222, 2102, 788, 2022, 2362, 2971, 1244, 2966, 507, 105, 159, 696; int(1..16)]
letting bots be 16
letting buffer_col be 2
letting buffer_row be 2
letting corridor_size be 1
letting n_shelves_col be 44
letting n_shelves_row be 10
letting shelf_col_size be 2
letting shelf_row_size be 1
